Grasp exp. instance_n_15_m_5_id_3.lp tipoLifted 0 szPool 5 nIteration 50 alpha 0.8 
Academic license - for non-commercial use only
Read LP format model from file ../input/instancesGenerated/instance_n_15_m_5_id_3.lp
Reading time = 0.00 seconds
: 5 rows, 15 columns, 75 nonzeros
Optimize a model with 5 rows, 15 columns and 75 nonzeros
Variable types: 0 continuous, 15 integer (15 binary)
Coefficient statistics:
  Matrix range     [1e+00, 1e+01]
  Objective range  [1e+00, 1e+01]
  Bounds range     [1e+00, 1e+00]
  RHS range        [4e+01, 4e+01]
Found heuristic solution: objective 45.0000000

Explored 0 nodes (0 simplex iterations) in 0.00 seconds
Thread count was 1 (of 8 available processors)

Solution count 1: 45 
No other solutions better than 0

Solution limit reached
Best objective 4.500000000000e+01, best bound -, gap -
C_1:	 3.00 x_1  = 0.000000 + 4.00 x_2  = 1.000000 + 2.00 x_3  = 0.000000 + 3.00 x_4  = 0.000000 + 5.00 x_5  = 1.000000 + 7.00 x_6  = 1.000000 + 4.00 x_7  = 0.250000 + 4.00 x_8  = 0.000000 + 4.00 x_9  = 1.000000 + 1.00 x_10  = 1.000000 + 9.00 x_11  = 0.000000 + 4.00 x_12  = 1.000000 + 4.00 x_13  = 0.000000 + 9.00 x_14  = 0.000000 + 9.00 x_15  = 0.593750 <= 36.00
C_2:	 7.00 x_1  = 0.000000 + 4.00 x_2  = 1.000000 + 7.00 x_3  = 0.000000 + 2.00 x_4  = 0.000000 + 7.00 x_5  = 1.000000 + 8.00 x_6  = 1.000000 + 1.00 x_7  = 0.250000 + 4.00 x_8  = 0.000000 + 3.00 x_9  = 1.000000 + 8.00 x_10  = 1.000000 + 2.00 x_11  = 0.000000 + 3.00 x_12  = 1.000000 + 6.00 x_13  = 0.000000 + 7.00 x_14  = 0.000000 + 8.00 x_15  = 0.593750 <= 38.00
C_3:	 7.00 x_1  = 0.000000 + 9.00 x_2  = 1.000000 + 3.00 x_3  = 0.000000 + 8.00 x_4  = 0.000000 + 1.00 x_5  = 1.000000 + 7.00 x_6  = 1.000000 + 6.00 x_7  = 0.250000 + 7.00 x_8  = 0.000000 + 1.00 x_9  = 1.000000 + 1.00 x_10  = 1.000000 + 9.00 x_11  = 0.000000 + 1.00 x_12  = 1.000000 + 5.00 x_13  = 0.000000 + 2.00 x_14  = 0.000000 + 10.00 x_15  = 0.593750 <= 38.00
C_4:	 3.00 x_1  = 0.000000 + 10.00 x_2  = 1.000000 + 5.00 x_3  = 0.000000 + 1.00 x_4  = 0.000000 + 3.00 x_5  = 1.000000 + 3.00 x_6  = 1.000000 + 9.00 x_7  = 0.250000 + 3.00 x_8  = 0.000000 + 6.00 x_9  = 1.000000 + 1.00 x_10  = 1.000000 + 3.00 x_11  = 0.000000 + 10.00 x_12  = 1.000000 + 5.00 x_13  = 0.000000 + 10.00 x_14  = 0.000000 + 8.00 x_15  = 0.593750 <= 40.00
C_5:	 2.00 x_1  = 0.000000 + 7.00 x_2  = 1.000000 + 8.00 x_3  = 0.000000 + 5.00 x_4  = 0.000000 + 6.00 x_5  = 1.000000 + 1.00 x_6  = 1.000000 + 3.00 x_7  = 0.250000 + 2.00 x_8  = 0.000000 + 7.00 x_9  = 1.000000 + 3.00 x_10  = 1.000000 + 4.00 x_11  = 0.000000 + 5.00 x_12  = 1.000000 + 4.00 x_13  = 0.000000 + 8.00 x_14  = 0.000000 + 8.00 x_15  = 0.593750 <= 36.00
Solution initial: 60.437500 
Number Constraints Used in Cover:5
GRASP Method!
Number cuts repeat: 0
value: 60.437500
Number Constraints Used in Cover:7
GRASP Method!
Number cuts repeat: 0
value: 60.437500
Number Constraints Used in Cover:8
GRASP Method!
Number cuts repeat: 0
value: 60.437500
Number Constraints Used in Cover:10
GRASP Method!
Number cuts repeat: 0
value: 60.437500
Number Constraints Used in Cover:14
GRASP Method!
Number cuts repeat: 0
value: 60.437500
Number Constraints Used in Cover:15
GRASP Method!
Number cuts repeat: 0
value: 60.437500
Number Constraints Used in Cover:17
GRASP Method!
Number cuts repeat: 0
value: 60.437500
Number Constraints Used in Cover:17
GRASP Method!
Number cuts repeat: 0
value: 60.437500
Number Constraints Used in Cover:21
GRASP Method!
Number cuts repeat: 0
value: 60.437500
Number Constraints Used in Cover:23
GRASP Method!
Number cuts repeat: 0
value: 60.437500
Number Constraints Used in Cover:26
GRASP Method!
Number cuts repeat: 0
value: 60.437500
Number Constraints Used in Cover:29
GRASP Method!
Number cuts repeat: 0
value: 60.437500
Number Constraints Used in Cover:31
GRASP Method!
Number cuts repeat: 0
value: 60.437500
Number Constraints Used in Cover:33
GRASP Method!
Number cuts repeat: 0
value: 60.437500
Number Constraints Used in Cover:35
GRASP Method!
Number cuts repeat: 0
value: 60.437500
Number Constraints Used in Cover:35
GRASP Method!
Number cuts repeat: 0
value: 60.437500
Number Constraints Used in Cover:37
GRASP Method!
Number cuts repeat: 0
value: 60.437500
Number Constraints Used in Cover:39
GRASP Method!
Number cuts repeat: 0
value: 60.437500
Number Constraints Used in Cover:41
GRASP Method!
Number cuts repeat: 0
value: 60.437500
Number Constraints Used in Cover:41
GRASP Method!
Number cuts repeat: 0
value: 60.437500
Number Constraints Used in Cover:42
GRASP Method!
Number cuts repeat: 0
value: 60.437500
Number Constraints Used in Cover:45
GRASP Method!
Number cuts repeat: 0
value: 60.437500
Number Constraints Used in Cover:46
GRASP Method!
Number cuts repeat: 0
value: 60.437500
Number Constraints Used in Cover:46
GRASP Method!
Number cuts repeat: 0
value: 60.437500
Number Constraints Used in Cover:46
GRASP Method!
Number cuts repeat: 0
value: 60.000000
Number Constraints Used in Cover:49
GRASP Method!
Number cuts repeat: 0
value: 60.000000
Number Constraints Used in Cover:53
GRASP Method!
Number cuts repeat: 0
value: 60.000000
Number Constraints Used in Cover:57
GRASP Method!
Number cuts repeat: 0
value: 60.000000
Number Constraints Used in Cover:62
GRASP Method!
Number cuts repeat: 0
value: 60.000000
Number Constraints Used in Cover:65
GRASP Method!
Number cuts repeat: 0
value: 60.000000
Number Constraints Used in Cover:66
GRASP Method!
Number cuts repeat: 0
value: 60.000000
Number Constraints Used in Cover:71
GRASP Method!
Number cuts repeat: 0
value: 60.000000
Number Constraints Used in Cover:75
GRASP Method!
Number cuts repeat: 0
value: 60.000000
Number Constraints Used in Cover:80
GRASP Method!
Number cuts repeat: 0
value: 60.000000
Number Constraints Used in Cover:89
GRASP Method!
Number cuts repeat: 0
value: 60.000000
Number Constraints Used in Cover:95
GRASP Method!
Number cuts repeat: 0
value: 60.000000
Number Constraints Used in Cover:105
GRASP Method!
Number cuts repeat: 0
value: 60.000000
Number Constraints Used in Cover:112
GRASP Method!
Number cuts repeat: 0
value: 60.000000
Number Constraints Used in Cover:123
GRASP Method!
Number cuts repeat: 0
value: 60.000000
Number Constraints Used in Cover:140
GRASP Method!
Number cuts repeat: 0
value: 60.000000
Number Constraints Used in Cover:152
GRASP Method!
Number cuts repeat: 0
value: 60.000000
Number Constraints Used in Cover:165
GRASP Method!
Number cuts repeat: 0
value: 60.000000
Number Constraints Used in Cover:186
GRASP Method!
Number cuts repeat: 0
value: 60.000000
Number Constraints Used in Cover:194
GRASP Method!
Number cuts repeat: 0
value: 60.000000
Number Constraints Used in Cover:210
GRASP Method!
Number cuts repeat: 0
value: 60.000000
Number Constraints Used in Cover:219
GRASP Method!
Number cuts repeat: 0
value: 60.000000
Number Constraints Used in Cover:225
GRASP Method!
Number cuts repeat: 0
value: 60.000000
Number Constraints Used in Cover:241
GRASP Method!
Number cuts repeat: 0
value: 60.000000
Number Constraints Used in Cover:253
GRASP Method!
Number cuts repeat: 0
value: 60.000000
Number Constraints Used in Cover:265
GRASP Method!
Number cuts repeat: 0
value: 60.000000
Number Constraints Used in Cover:274
GRASP Method!
Number cuts repeat: 0
value: 60.000000
Number Constraints Used in Cover:282
GRASP Method!
Number cuts repeat: 0
value: 60.000000
Number Constraints Used in Cover:288
GRASP Method!
Number cuts repeat: 0
value: 60.000000
Number Constraints Used in Cover:298
GRASP Method!
Number cuts repeat: 0
value: 60.000000
Number Constraints Used in Cover:311
GRASP Method!
Number cuts repeat: 0
value: 60.000000
Number Constraints Used in Cover:317
GRASP Method!
Number cuts repeat: 0
value: 60.000000
Number Constraints Used in Cover:332
GRASP Method!
Number cuts repeat: 0
value: 60.000000
Number Constraints Used in Cover:343
GRASP Method!
Number cuts repeat: 0
value: 60.000000
Number Constraints Used in Cover:352
GRASP Method!
Number cuts repeat: 0
value: 60.000000
Number Constraints Used in Cover:363
GRASP Method!
Number cuts repeat: 0
value: 60.000000
Number Constraints Used in Cover:370
GRASP Method!
Number cuts repeat: 0
value: 60.000000
Number Constraints Used in Cover:384
GRASP Method!
Number cuts repeat: 0
value: 60.000000
Number Constraints Used in Cover:400
GRASP Method!
Number cuts repeat: 0
value: 60.000000
Number Constraints Used in Cover:407
GRASP Method!
Number cuts repeat: 0
value: 60.000000
Number Constraints Used in Cover:411
GRASP Method!
Number cuts repeat: 0
value: 60.000000
Number Constraints Used in Cover:419
GRASP Method!
Number cuts repeat: 0
value: 60.000000
Number Constraints Used in Cover:432
GRASP Method!
Number cuts repeat: 0
value: 60.000000
Number Constraints Used in Cover:446
GRASP Method!
Number cuts repeat: 0
value: 60.000000
Number Constraints Used in Cover:451
GRASP Method!
Number cuts repeat: 0
value: 60.000000
Number Constraints Used in Cover:456
GRASP Method!
Number cuts repeat: 0
value: 60.000000
Number Constraints Used in Cover:466
GRASP Method!
Number cuts repeat: 0
value: 60.000000
Number Constraints Used in Cover:474
GRASP Method!
Number cuts repeat: 0
value: 60.000000
Number Constraints Used in Cover:487
GRASP Method!
Number cuts repeat: 0
value: 60.000000
Number Constraints Used in Cover:494
GRASP Method!
Number cuts repeat: 0
value: 60.000000
Number Constraints Used in Cover:500
GRASP Method!
Number cuts repeat: 0
value: 60.000000
Number Constraints Used in Cover:508
GRASP Method!
Number cuts repeat: 0
value: 60.000000
Number Constraints Used in Cover:517
GRASP Method!
Number cuts repeat: 0
value: 60.000000
Number Constraints Used in Cover:527
GRASP Method!
Number cuts repeat: 0
value: 60.000000
Number Constraints Used in Cover:532
GRASP Method!
Number cuts repeat: 0
value: 60.000000
Number Constraints Used in Cover:539
GRASP Method!
Number cuts repeat: 0
value: 60.000000
Number Constraints Used in Cover:546
GRASP Method!
Number cuts repeat: 0
value: 60.000000
Number Constraints Used in Cover:552
GRASP Method!
Number cuts repeat: 0
value: 60.000000
Number Constraints Used in Cover:561
GRASP Method!
Number cuts repeat: 0
value: 60.000000
Number Constraints Used in Cover:571
GRASP Method!
Number cuts repeat: 0
value: 60.000000
Number Constraints Used in Cover:582
GRASP Method!
Number cuts repeat: 0
value: 60.000000
Number Constraints Used in Cover:589
GRASP Method!
Number cuts repeat: 0
value: 60.000000
Number Constraints Used in Cover:595
GRASP Method!
Number cuts repeat: 0
value: 60.000000
Number Constraints Used in Cover:599
GRASP Method!
Number cuts repeat: 0
value: 60.000000
Number Constraints Used in Cover:604
GRASP Method!
Number cuts repeat: 0
value: 60.000000
Number Constraints Used in Cover:610
GRASP Method!
Number cuts repeat: 0
value: 60.000000
Number Constraints Used in Cover:615
GRASP Method!
Number cuts repeat: 0
value: 60.000000
Number Constraints Used in Cover:621
GRASP Method!
Number cuts repeat: 0
value: 60.000000
Number Constraints Used in Cover:624
GRASP Method!
Number cuts repeat: 0
value: 60.000000
Number Constraints Used in Cover:635
GRASP Method!
Number cuts repeat: 0
value: 60.000000
Number Constraints Used in Cover:639
GRASP Method!
Number cuts repeat: 0
value: 60.000000
Number Constraints Used in Cover:650
GRASP Method!
Number cuts repeat: 0
value: 60.000000
Number Constraints Used in Cover:661
GRASP Method!
Number cuts repeat: 0
value: 60.000000
Number Constraints Used in Cover:666
GRASP Method!
Number cuts repeat: 0
value: 60.000000
Number Constraints Used in Cover:672
GRASP Method!
Number cuts repeat: 0
value: 60.000000
Number Constraints Used in Cover:673
GRASP Method!
Number cuts repeat: 0
value: 60.000000
Number Constraints Used in Cover:678
GRASP Method!
Number cuts repeat: 0
value: 60.000000
Number Constraints Used in Cover:684
GRASP Method!
Number cuts repeat: 0
value: 60.000000
Number Constraints Used in Cover:695
GRASP Method!
Number cuts repeat: 0
value: 60.000000
Number Constraints Used in Cover:699
GRASP Method!
Number cuts repeat: 0
value: 60.000000
Number Constraints Used in Cover:705
GRASP Method!
Number cuts repeat: 0
value: 60.000000
Number Constraints Used in Cover:707
GRASP Method!
Number cuts repeat: 0
value: 60.000000
Number Constraints Used in Cover:710
GRASP Method!
Number cuts repeat: 0
value: 60.000000
Number Constraints Used in Cover:712
GRASP Method!
Number cuts repeat: 0
value: 60.000000
Number Constraints Used in Cover:720
GRASP Method!
Number cuts repeat: 0
value: 60.000000
Number Constraints Used in Cover:723
GRASP Method!
Number cuts repeat: 0
value: 60.000000
Number Constraints Used in Cover:724
GRASP Method!
Number cuts repeat: 0
value: 60.000000
Number Constraints Used in Cover:726
GRASP Method!
Number cuts repeat: 0
value: 60.000000
Number Constraints Used in Cover:728
GRASP Method!
Number cuts repeat: 0
value: 60.000000
Number Constraints Used in Cover:729
GRASP Method!
Number cuts repeat: 0
value: 60.000000
Number Constraints Used in Cover:734
GRASP Method!
Number cuts repeat: 0
value: 60.000000
Number Constraints Used in Cover:739
GRASP Method!
Number cuts repeat: 0
value: 60.000000
Number Constraints Used in Cover:745
GRASP Method!
Number cuts repeat: 0
value: 60.000000
Number Constraints Used in Cover:751
GRASP Method!
Number cuts repeat: 0
value: 60.000000
Number Constraints Used in Cover:764
GRASP Method!
Number cuts repeat: 0
value: 60.000000
Number Constraints Used in Cover:778
GRASP Method!
Number cuts repeat: 0
value: 60.000000
Number Constraints Used in Cover:790
GRASP Method!
Number cuts repeat: 0
value: 60.000000
Number Constraints Used in Cover:799
GRASP Method!
Number cuts repeat: 0
value: 60.000000
Number Constraints Used in Cover:811
GRASP Method!
Number cuts repeat: 0
value: 60.000000
Number Constraints Used in Cover:817
GRASP Method!
Number cuts repeat: 0
value: 60.000000
Number Constraints Used in Cover:830
GRASP Method!
Number cuts repeat: 0
value: 60.000000
Number Constraints Used in Cover:839
GRASP Method!
Number cuts repeat: 0
value: 60.000000
Number Constraints Used in Cover:848
GRASP Method!
Number cuts repeat: 0
value: 60.000000
Number Constraints Used in Cover:850
GRASP Method!
Number cuts repeat: 0
value: 60.000000
Number Constraints Used in Cover:859
GRASP Method!
Number cuts repeat: 0
value: 60.000000
Number Constraints Used in Cover:864
GRASP Method!
Number cuts repeat: 0
value: 60.000000
Number Constraints Used in Cover:871
GRASP Method!
Number cuts repeat: 0
value: 60.000000
Number Cuts Final: 872
